peakDumbCharging = 7400; 
Machine = anon_enum(16); 
machineSpeed = [3700,3700,3700,3700,3700,3700,3700,3700,3700,3700,3700,3700,3700,3700,3700,3700]; 
machineLoad = [3700,3700,3700,3700,3700,3700,3700,3700,3700,3700,3700,3700,3700,3700,3700,3700]; 
Car = anon_enum(11); 
demandCar = [3600,8560,13680,3120,23000,10560,5320,6400,7760,7600,11520]; 
arrivalCar = [67,62,60,56,50,50,46,44,40,35,29]; 
departureCar = [69,66,65,59,58,54,50,52,44,39,35]; 
